problems/csplib-prob110/ArmiesOfQueens-models/compact/O2/lingeling/model_1_1-05-solution000001.solution
language Essence 1.3

letting black be {(1, 1), (1, 3), (5, 1), (5, 3)}
$ Here is a simple "visualisation" for the value above.
$ 1 1
$ 1 3
$ 5 1
$ 5 3

letting white be {(2, 5), (3, 2), (3, 4), (4, 5)}
$ Here is a simple "visualisation" for the value above.
$ 2 5
$ 3 2
$ 3 4
$ 4 5

