problems/csplib-prob110/ArmiesOfQueens-models/noch/O2/lingeling/model_1_1-05-solution000001.eprime-solution
language ESSENCE' 1.0

letting black_ExplicitVarSizeWithMarker_Marker be 4
letting black_ExplicitVarSizeWithMarker_Values_1 be
        [1, 1, 5, 5, 1, 1, 1, 1, 1, 1, 1, 1, 1, 1, 1, 1, 1, 1, 1, 1, 1, 1, 1, 1, 1; int(1..25)]
letting black_ExplicitVarSizeWithMarker_Values_2 be
        [1, 3, 1, 3, 1, 1, 1, 1, 1, 1, 1, 1, 1, 1, 1, 1, 1, 1, 1, 1, 1, 1, 1, 1, 1; int(1..25)]
letting white_ExplicitVarSizeWithMarker_Marker be 4
letting white_ExplicitVarSizeWithMarker_Values_1 be
        [2, 3, 3, 4, 1, 1, 1, 1, 1, 1, 1, 1, 1, 1, 1, 1, 1, 1, 1, 1, 1, 1, 1, 1, 1; int(1..25)]
letting white_ExplicitVarSizeWithMarker_Values_2 be
        [5, 2, 4, 5, 1, 1, 1, 1, 1, 1, 1, 1, 1, 1, 1, 1, 1, 1, 1, 1, 1, 1, 1, 1, 1; int(1..25)]
